GLPSOL--GLPK LP/MIP Solver 5.0
Parameter(s) specified in the command line:
 --lp ../modeles/20_109.lp --log 20_109.log
Reading problem data from '../modeles/20_109.lp'...
2261 rows, 4400 columns, 15360 non-zeros
2180 integer variables, all of which are binary
6687 lines were read
GLPK Integer Optimizer 5.0
2261 rows, 4400 columns, 15360 non-zeros
2180 integer variables, all of which are binary
Preprocessing...
2120 constraint coefficient(s) were reduced
2261 rows, 4380 columns, 15340 non-zeros
2180 integer variables, all of which are binary
Scaling...
 A: min|aij| =  3.367e-04  max|aij| =  4.000e+00  ratio =  1.188e+04
GM: min|aij| =  9.578e-02  max|aij| =  1.044e+01  ratio =  1.090e+02
EQ: min|aij| =  9.174e-03  max|aij| =  1.000e+00  ratio =  1.090e+02
2N: min|aij| =  7.812e-03  max|aij| =  1.725e+00  ratio =  2.208e+02
Constructing initial basis...
Size of triangular part is 2261
Solving LP relaxation...
GLPK Simplex Optimizer 5.0
2261 rows, 4380 columns, 15340 non-zeros
      0: obj =   4.000000000e+01 inf =   9.950e+01 (41)
    179: obj =   4.966750842e-01 inf =   0.000e+00 (0)
*   682: obj =  -4.457377676e+00 inf =   6.628e-15 (0) 1
OPTIMAL LP SOLUTION FOUND
Integer optimization begins...
Long-step dual simplex will be used
+   682: mip =     not found yet >=              -inf        (1; 0)
+   786: >>>>>  -4.457377676e+00 >=  -4.457377676e+00 < 0.1% (101; 0)
+   786: mip =  -4.457377676e+00 >=     tree is empty   0.0% (0; 201)
INTEGER OPTIMAL SOLUTION FOUND
Time used:   0.5 secs
Memory used: 6.4 Mb (6734216 bytes)
